% demand
num_movements = 39;
loading_factor = [850, 1450, 850, 1050, 1150, 1350, 1700, 800, 1650, 1550, 1900, 1700, 850, 800, 1550, 1150, 1600, 1950, 850, 1000, 2000, 1550, 1200, 1300, 1700, 1850, 1750, 1550, 1000, 1950, 1200, 900, 1050, 1900, 1550, 1500, 1800, 1550, 1000];
pickup_time = [0, 1, 1, 1, 1, 1, 1, 1, 1, 2, 2, 3, 4, 4, 4, 5, 5, 5, 5, 5, 5, 6, 8, 8, 9, 9, 10, 10, 10, 10, 10, 10, 10, 11, 11, 11, 11, 11, 11];
delivery_time = [3, 4, 2, 3, 4, 2, 2, 8, 4, 4, 5, 5, 5, 5, 7, 6, 8, 6, 6, 6, 8, 9, 11, 9, 10, 10, 11, 12, 11, 11, 11, 11, 11, 12, 12, 12, 12, 12, 12];

% transporter definition
total_capacity = 11000;
num_decks = 4;
capacity = [3000, 3000, 1000, 4000];

% ways out of decks
num_ways_out = 2;
paths_out = array3d(decks, ways_out, decks, [
% ways out of deck d1
2, 4, 0, 0, 3, 4, 0, 0, 

% ways out of deck d2
4, 0, 0, 0, 0, 0, 0, 0,	

% ways out of deck d3
4, 0, 0, 0, 0, 0, 0, 0,	

% ways out of deck d4
0, 0, 0, 0,	0, 0, 0, 0,	

]);

